500
1000
209
209
208
208
206
205
205
204
204
204
204
203
203
203
202
202
201
201
201
200
200
200
200
200
200
199
199
199
199
199
199
199
198
198
197
197
196
196
196
195
195
195
195
194
194
193
193
193
193
193
192
192
192
190
190
190
190
190
189
189
189
188
188
187
186
186
185
184
184
184
183
183
182
182
182
182
181
181
181
181
181
181
180
180
179
179
179
178
177
177
177
176
175
175
175
175
174
174
174
173
173
173
172
172
171
171
171
171
171
169
169
168
168
167
167
167
167
165
165
164
164
164
163
163
163
163
162
162
162
162
162
162
160
160
160
160
159
159
158
158
158
158
157
157
156
156
156
156
155
155
154
153
153
153
153
152
151
151
151
151
149
149
148
148
147
147
147
146
145
144
143
142
142
141
141
141
141
140
140
140
140
139
139
139
138
138
138
138
137
137
136
135
135
135
134
134
134
134
133
133
133
132
132
132
132
131
130
130
130
130
129
129
128
128
127
127
127
127
127
126
126
126
126
126
125
125
125
124
124
123
123
122
122
122
122
121
121
121
121
120
119
119
119
119
118
118
118
117
117
117
116
116
116
115
115
115
115
114
114
114
113
113
112
112
112
112
112
111
109
108
108
107
105
105
104
104
103
103
103
102
102
102
101
100
100
99
99
98
98
98
98
98
97
96
96
96
96
96
95
94
94
93
92
92
92
91
91
90
90
89
89
89
88
88
88
87
87
86
85
84
84
84
82
82
82
82
82
81
81
80
80
80
80
80
79
79
79
79
78
78
78
78
78
77
77
76
76
75
75
75
74
74
74
72
72
72
72
72
70
70
70
70
70
70
70
69
69
69
68
67
65
65
65
65
65
65
64
64
63
63
62
62
61
59
59
58
57
57
56
56
56
56
55
55
54
53
53
52
51
51
51
50
50
50
49
49
48
47
46
46
46
44
44
43
43
43
43
41
40
40
40
40
39
39
39
39
38
38
38
38
37
37
37
37
36
35
35
35
35
34
34
34
33
33
33
32
32
32
32
31
31
31
31
31
30
30
30
30
29
29
29
28
28
28
28
27
26
26
26
25
25
24
24
24
24
24
23
23
23
22
21
20
19
19
19
18
18
17
17
17
16
15
15
15
15
15
14
14
14
13
